Academic license - for non-commercial use only
Optimize a model with 1390 rows, 1200 columns and 89670 nonzeros
Variable types: 0 continuous, 1200 integer (1200 binary)
Coefficient statistics:
  Matrix range     [1e+00, 4e+01]
  Objective range  [1e+00, 5e+01]
  Bounds range     [1e+00, 1e+00]
  RHS range        [1e+00, 8e+01]
Presolve removed 437 rows and 264 columns
Presolve time: 0.31s
Presolved: 953 rows, 936 columns, 61566 nonzeros
Variable types: 0 continuous, 936 integer (936 binary)
Found heuristic solution: objective 150.0000000

Root relaxation: objective 6.343076e+01, 47 iterations, 0.01 seconds

    Nodes    |    Current Node    |     Objective Bounds      |     Work
 Expl Unexpl |  Obj  Depth IntInf | Incumbent    BestBd   Gap | It/Node Time

     0     0   63.43076    0   22  150.00000   63.43076  57.7%     -    0s
H    0     0                     140.0000000   63.43076  54.7%     -    0s
H    0     0                     128.0000000   63.43076  50.4%     -    0s
     0     0   79.77273    0   29  128.00000   79.77273  37.7%     -    0s
     0     0   84.55039    0   32  128.00000   84.55039  33.9%     -    0s
     0     0   84.55039    0   32  128.00000   84.55039  33.9%     -    0s
     0     0   95.87500    0   31  128.00000   95.87500  25.1%     -    0s
     0     0   98.30769    0   24  128.00000   98.30769  23.2%     -    0s
     0     0   98.30769    0   26  128.00000   98.30769  23.2%     -    0s
     0     0  103.66667    0   33  128.00000  103.66667  19.0%     -    0s
H    0     0                     123.0000000  103.66667  15.7%     -    0s
     0     0  105.52116    0   28  123.00000  105.52116  14.2%     -    1s
     0     0  106.66667    0   29  123.00000  106.66667  13.3%     -    1s
     0     0  108.50000    0   29  123.00000  108.50000  11.8%     -    1s
H    0     0                     122.0000000  108.50000  11.1%     -    1s
     0     0  108.50000    0   26  122.00000  108.50000  11.1%     -    1s
     0     0  108.50000    0   31  122.00000  108.50000  11.1%     -    1s
     0     0  108.50000    0   25  122.00000  108.50000  11.1%     -    1s
     0     0  108.50000    0   44  122.00000  108.50000  11.1%     -    1s
     0     0  108.50000    0   31  122.00000  108.50000  11.1%     -    1s
     0     0  111.33333    0   32  122.00000  111.33333  8.74%     -    1s
     0     0  111.40000    0   36  122.00000  111.40000  8.69%     -    1s
     0     0  111.50000    0   37  122.00000  111.50000  8.61%     -    1s
     0     0  113.46154    0   34  122.00000  113.46154  7.00%     -    1s
     0     0  113.46154    0   27  122.00000  113.46154  7.00%     -    2s
     0     0  113.46154    0   35  122.00000  113.46154  7.00%     -    2s
     0     0  113.46154    0   40  122.00000  113.46154  7.00%     -    2s
     0     0  113.46154    0   25  122.00000  113.46154  7.00%     -    2s
     0     0  113.46154    0   36  122.00000  113.46154  7.00%     -    2s
     0     0  113.50000    0   22  122.00000  113.50000  6.97%     -    2s
     0     0  115.33333    0   41  122.00000  115.33333  5.46%     -    2s
     0     0  115.50000    0   43  122.00000  115.50000  5.33%     -    2s
     0     0  115.80000    0   27  122.00000  115.80000  5.08%     -    2s
     0     0  116.00000    0   41  122.00000  116.00000  4.92%     -    2s
     0     0  116.00000    0   20  122.00000  116.00000  4.92%     -    2s
     0     0  117.43750    0   49  122.00000  117.43750  3.74%     -    2s
     0     0  117.43750    0   50  122.00000  117.43750  3.74%     -    2s
     0     0  117.43750    0   46  122.00000  117.43750  3.74%     -    2s
     0     0  117.43750    0   31  122.00000  117.43750  3.74%     -    2s
     0     0  117.43750    0   36  122.00000  117.43750  3.74%     -    2s
     0     0  117.43750    0   37  122.00000  117.43750  3.74%     -    2s
     0     0  117.43750    0   50  122.00000  117.43750  3.74%     -    2s
     0     0  117.43750    0   51  122.00000  117.43750  3.74%     -    2s
     0     0  117.43750    0   40  122.00000  117.43750  3.74%     -    2s
     0     0  117.43750    0   44  122.00000  117.43750  3.74%     -    2s
     0     0  117.43750    0   47  122.00000  117.43750  3.74%     -    2s
     0     0  119.00000    0   23  122.00000  119.00000  2.46%     -    2s
     0     0  119.00000    0   24  122.00000  119.00000  2.46%     -    2s
     0     0  119.00000    0   20  122.00000  119.00000  2.46%     -    2s
     0     0  120.00000    0   24  122.00000  120.00000  1.64%     -    2s
     0     0  120.00000    0    4  122.00000  120.00000  1.64%     -    3s
     0     0  120.00000    0   40  122.00000  120.00000  1.64%     -    3s
     0     0  120.00000    0   48  122.00000  120.00000  1.64%     -    3s
     0     0  120.00000    0   39  122.00000  120.00000  1.64%     -    3s
     0     0  120.00000    0   48  122.00000  120.00000  1.64%     -    3s
     0     0  120.00000    0   48  122.00000  120.00000  1.64%     -    3s
     0     0  120.00000    0   26  122.00000  120.00000  1.64%     -    3s
     0     0  120.00000    0   20  122.00000  120.00000  1.64%     -    3s
     0     0  120.50000    0   22  122.00000  120.50000  1.23%     -    3s
     0     0  120.52381    0   39  122.00000  120.52381  1.21%     -    3s
     0     0  120.52381    0   32  122.00000  120.52381  1.21%     -    3s
H    0     0                     121.0000000  120.52381  0.39%     -    3s

Cutting planes:
  Gomory: 2
  Clique: 16
  MIR: 2
  Zero half: 4

Explored 1 nodes (2570 simplex iterations) in 3.27 seconds
Thread count was 8 (of 8 available processors)

Solution count 6: 121 122 123 ... 150

Optimal solution found (tolerance 1.00e-04)
Best objective 1.210000000000e+02, best bound 1.210000000000e+02, gap 0.0000%

